136
100
15
41
27
19
26
25
6
32
18
49
17
8
15
21
1
30
11
5
11
29
6
29
8
8
37
3
16
28
12
14
27
40
4
47
14
42
37
37
42
5
26
43
32
32
38
40
1
22
12
20
14
36
23
49
29
7
10
13
6
40
45
11
26
2
22
19
11
11
41
7
43
10
36
13
9
23
40
14
26
11
21
13
23
10
21
1
50
17
15
12
50
24
20
23
29
14
50
23
35
12
5
37
37
3
17
7
30
41
39
7
43
22
8
28
21
48
14
4
40
18
13
21
15
21
12
13
18
9
34
6
41
14
21
12
42
1
